28 28
22
3 3 10 9
3 4 3 8
3 5 25 23
3 6 14 22
3 7 0 21
3 8 3 0
3 9 10 0
3 10 14 12
3 11 22 0
3 16 3 12
3 17 22 11
3 21 0 0
3 23 25 0
4 3 10 12
4 4 13 0
4 5 6 0
4 8 13 4
4 13 10 15
4 23 6 5
5 6 17 0
5 9 17 6
5 13 17 15
